50
11987

486 522
276 229
674 94
542 434
683 970
359 455
147 116
391 677
12 434
384 995
495 139
281 553
659 321
830 904
472 637
708 572
886 168
616 1000
234 714
572 907
2 53
678 569
640 176
149 520
451 836
377 86
167 411
348 623
928 429
216 685
61 611
591 481
839 489
205 624
77 394
526 555
704 32
839 657
346 744
698 85
415 991
818 197
863 1000
90 807
20 680
941 268
63 365
840 964
937 372
678 887
